13571756495693023685010,8,1,2,014,7,1,2,01,6,1,2,05,5,1,2,01,1,1,2,09,5,1,2,09,9,1,2,010,14,1,2,06,3,1,2,013,15,1,2,015,3,1,2,012,11,1,2,04,10,1,2,03,11,1,2,07,4,1,2,010,15,1,2,01,12,1,2,014,2,1,2,07,1,1,2,011,2,1,2,08,15,1,2,011,15,1,2,07,9,1,2,02,9,1,2,09,15,1,2,010,7,1,2,05,14,1,2,010,10,1,2,014,4,1,2,06,13,1,2,01,15,1,2,011,1,1,2,06,4,1,2,014,14,1,2,02,9,1,2,04,14,1,2,03,11,1,2,05,4,1,2,013,12,1,2,014,9,1,2,07,12,1,2,06,7,1,2,08,5,1,2,06,1,1,2,07,13,1,2,010,10,1,2,010,15,1,2,011,5,1,2,02,1,1,2,02,14,1,2,0